NAME: Random_50_2
ELLAPSED_TIME_(ms): 0
TOUR_SIZE: 1186.7428
TOUR_SECTION
0
15
24
2
10
22
31
1
39
7
49
11
38
9
47
32
34
14
36
19
6
5
26
37
45
12
20
23
17
41
8
3
28
43
40
16
21
42
27
48
44
25
35
18
30
13
29
4
46
33
0
EOF
